 &control
    calculation = 'scf',
    verbosity = 'high'
    prefix = 'Pt.sc'
 /
 &system
    ibrav = 2, 
    A = 3.5, 
    nat =  1, 
    ntyp = 1,
    ecutwfc = 40.0,
    ecutrho = 450.0,
    occupations = 'smearing',
    smearing = 'marzari-vanderbilt',
    degauss = 0.02
 /
 &electrons
    mixing_beta = 0.7
 /

ATOMIC_SPECIES
 
Pt 195.084000  Pt.pbe-n-rrkjus_psl.1.0.0.UPF

ATOMIC_POSITIONS (alat)
 Pt 0.0 0.0 0.0

K_POINTS (automatic)
 16 16 16 1 1 1
